c File: flat50_3_0.col
c
c SOURCE: Joseph Culberson (joe@cs.ualberta.ca)
c DESCRIPTION: Quasi-random coloring problem
c              generated with flatness = 0
c                             probability = 0.139
c                             known coloring = 3
c                             random seed = 1659
c              Creation Date:  Tue Jun  9 12:14:44 1998
c Maximum degree = 8 Minimum degree = 1
c p edge 50 115
c cnf created by edge2cnf
p cnf 150 545
-1 -2 0
-1 -3 0
-2 -3 0
1 2 3 0
-4 -5 0
-4 -6 0
-5 -6 0
4 5 6 0
-7 -8 0
-7 -9 0
-8 -9 0
7 8 9 0
-10 -11 0
-10 -12 0
-11 -12 0
10 11 12 0
-13 -14 0
-13 -15 0
-14 -15 0
13 14 15 0
-16 -17 0
-16 -18 0
-17 -18 0
16 17 18 0
-19 -20 0
-19 -21 0
-20 -21 0
19 20 21 0
-22 -23 0
-22 -24 0
-23 -24 0
22 23 24 0
-25 -26 0
-25 -27 0
-26 -27 0
25 26 27 0
-28 -29 0
-28 -30 0
-29 -30 0
28 29 30 0
-31 -32 0
-31 -33 0
-32 -33 0
31 32 33 0
-34 -35 0
-34 -36 0
-35 -36 0
34 35 36 0
-37 -38 0
-37 -39 0
-38 -39 0
37 38 39 0
-40 -41 0
-40 -42 0
-41 -42 0
40 41 42 0
-43 -44 0
-43 -45 0
-44 -45 0
43 44 45 0
-46 -47 0
-46 -48 0
-47 -48 0
46 47 48 0
-49 -50 0
-49 -51 0
-50 -51 0
49 50 51 0
-52 -53 0
-52 -54 0
-53 -54 0
52 53 54 0
-55 -56 0
-55 -57 0
-56 -57 0
55 56 57 0
-58 -59 0
-58 -60 0
-59 -60 0
58 59 60 0
-61 -62 0
-61 -63 0
-62 -63 0
61 62 63 0
-64 -65 0
-64 -66 0
-65 -66 0
64 65 66 0
-67 -68 0
-67 -69 0
-68 -69 0
67 68 69 0
-70 -71 0
-70 -72 0
-71 -72 0
70 71 72 0
-73 -74 0
-73 -75 0
-74 -75 0
73 74 75 0
-76 -77 0
-76 -78 0
-77 -78 0
76 77 78 0
-79 -80 0
-79 -81 0
-80 -81 0
79 80 81 0
-82 -83 0
-82 -84 0
-83 -84 0
82 83 84 0
-85 -86 0
-85 -87 0
-86 -87 0
85 86 87 0
-88 -89 0
-88 -90 0
-89 -90 0
88 89 90 0
-91 -92 0
-91 -93 0
-92 -93 0
91 92 93 0
-94 -95 0
-94 -96 0
-95 -96 0
94 95 96 0
-97 -98 0
-97 -99 0
-98 -99 0
97 98 99 0
-100 -101 0
-100 -102 0
-101 -102 0
100 101 102 0
-103 -104 0
-103 -105 0
-104 -105 0
103 104 105 0
-106 -107 0
-106 -108 0
-107 -108 0
106 107 108 0
-109 -110 0
-109 -111 0
-110 -111 0
109 110 111 0
-112 -113 0
-112 -114 0
-113 -114 0
112 113 114 0
-115 -116 0
-115 -117 0
-116 -117 0
115 116 117 0
-118 -119 0
-118 -120 0
-119 -120 0
118 119 120 0
-121 -122 0
-121 -123 0
-122 -123 0
121 122 123 0
-124 -125 0
-124 -126 0
-125 -126 0
124 125 126 0
-127 -128 0
-127 -129 0
-128 -129 0
127 128 129 0
-130 -131 0
-130 -132 0
-131 -132 0
130 131 132 0
-133 -134 0
-133 -135 0
-134 -135 0
133 134 135 0
-136 -137 0
-136 -138 0
-137 -138 0
136 137 138 0
-139 -140 0
-139 -141 0
-140 -141 0
139 140 141 0
-142 -143 0
-142 -144 0
-143 -144 0
142 143 144 0
-145 -146 0
-145 -147 0
-146 -147 0
145 146 147 0
-148 -149 0
-148 -150 0
-149 -150 0
148 149 150 0
-76 -1 0
-77 -2 0
-78 -3 0
-88 -1 0
-89 -2 0
-90 -3 0
-133 -1 0
-134 -2 0
-135 -3 0
-70 -4 0
-71 -5 0
-72 -6 0
-136 -4 0
-137 -5 0
-138 -6 0
-142 -4 0
-143 -5 0
-144 -6 0
-145 -4 0
-146 -5 0
-147 -6 0
-55 -7 0
-56 -8 0
-57 -9 0
-67 -7 0
-68 -8 0
-69 -9 0
-103 -7 0
-104 -8 0
-105 -9 0
-139 -7 0
-140 -8 0
-141 -9 0
-52 -10 0
-53 -11 0
-54 -12 0
-82 -10 0
-83 -11 0
-84 -12 0
-94 -10 0
-95 -11 0
-96 -12 0
-100 -10 0
-101 -11 0
-102 -12 0
-136 -10 0
-137 -11 0
-138 -12 0
-145 -10 0
-146 -11 0
-147 -12 0
-148 -10 0
-149 -11 0
-150 -12 0
-88 -13 0
-89 -14 0
-90 -15 0
-94 -13 0
-95 -14 0
-96 -15 0
-106 -13 0
-107 -14 0
-108 -15 0
-124 -13 0
-125 -14 0
-126 -15 0
-142 -13 0
-143 -14 0
-144 -15 0
-70 -16 0
-71 -17 0
-72 -18 0
-79 -16 0
-80 -17 0
-81 -18 0
-91 -16 0
-92 -17 0
-93 -18 0
-103 -16 0
-104 -17 0
-105 -18 0
-118 -16 0
-119 -17 0
-120 -18 0
-124 -16 0
-125 -17 0
-126 -18 0
-142 -16 0
-143 -17 0
-144 -18 0
-58 -19 0
-59 -20 0
-60 -21 0
-79 -19 0
-80 -20 0
-81 -21 0
-58 -22 0
-59 -23 0
-60 -24 0
-97 -22 0
-98 -23 0
-99 -24 0
-100 -22 0
-101 -23 0
-102 -24 0
-58 -25 0
-59 -26 0
-60 -27 0
-100 -25 0
-101 -26 0
-102 -27 0
-115 -25 0
-116 -26 0
-117 -27 0
-85 -28 0
-86 -29 0
-87 -30 0
-91 -28 0
-92 -29 0
-93 -30 0
-139 -28 0
-140 -29 0
-141 -30 0
-58 -31 0
-59 -32 0
-60 -33 0
-61 -31 0
-62 -32 0
-63 -33 0
-97 -31 0
-98 -32 0
-99 -33 0
-103 -31 0
-104 -32 0
-105 -33 0
-121 -31 0
-122 -32 0
-123 -33 0
-82 -34 0
-83 -35 0
-84 -36 0
-109 -34 0
-110 -35 0
-111 -36 0
-115 -34 0
-116 -35 0
-117 -36 0
-118 -34 0
-119 -35 0
-120 -36 0
-130 -34 0
-131 -35 0
-132 -36 0
-61 -37 0
-62 -38 0
-63 -39 0
-79 -37 0
-80 -38 0
-81 -39 0
-115 -37 0
-116 -38 0
-117 -39 0
-130 -37 0
-131 -38 0
-132 -39 0
-145 -37 0
-146 -38 0
-147 -39 0
-55 -40 0
-56 -41 0
-57 -42 0
-73 -40 0
-74 -41 0
-75 -42 0
-82 -40 0
-83 -41 0
-84 -42 0
-94 -40 0
-95 -41 0
-96 -42 0
-109 -40 0
-110 -41 0
-111 -42 0
-124 -40 0
-125 -41 0
-126 -42 0
-130 -40 0
-131 -41 0
-132 -42 0
-139 -40 0
-140 -41 0
-141 -42 0
-52 -43 0
-53 -44 0
-54 -45 0
-76 -43 0
-77 -44 0
-78 -45 0
-85 -43 0
-86 -44 0
-87 -45 0
-94 -43 0
-95 -44 0
-96 -45 0
-124 -43 0
-125 -44 0
-126 -45 0
-139 -43 0
-140 -44 0
-141 -45 0
-142 -43 0
-143 -44 0
-144 -45 0
-55 -46 0
-56 -47 0
-57 -48 0
-118 -46 0
-119 -47 0
-120 -48 0
-130 -46 0
-131 -47 0
-132 -48 0
-70 -49 0
-71 -50 0
-72 -51 0
-73 -49 0
-74 -50 0
-75 -51 0
-103 -49 0
-104 -50 0
-105 -51 0
-106 -49 0
-107 -50 0
-108 -51 0
-118 -52 0
-119 -53 0
-120 -54 0
-112 -55 0
-113 -56 0
-114 -57 0
-121 -55 0
-122 -56 0
-123 -57 0
-124 -55 0
-125 -56 0
-126 -57 0
-103 -58 0
-104 -59 0
-105 -60 0
-109 -58 0
-110 -59 0
-111 -60 0
-130 -58 0
-131 -59 0
-132 -60 0
-148 -58 0
-149 -59 0
-150 -60 0
-106 -61 0
-107 -62 0
-108 -63 0
-127 -61 0
-128 -62 0
-129 -63 0
-139 -61 0
-140 -62 0
-141 -63 0
-148 -61 0
-149 -62 0
-150 -63 0
-115 -64 0
-116 -65 0
-117 -66 0
-103 -67 0
-104 -68 0
-105 -69 0
-115 -67 0
-116 -68 0
-117 -69 0
-121 -67 0
-122 -68 0
-123 -69 0
-145 -67 0
-146 -68 0
-147 -69 0
-103 -70 0
-104 -71 0
-105 -72 0
-109 -73 0
-110 -74 0
-111 -75 0
-112 -73 0
-113 -74 0
-114 -75 0
-118 -73 0
-119 -74 0
-120 -75 0
-133 -73 0
-134 -74 0
-135 -75 0
-121 -76 0
-122 -77 0
-123 -78 0
-130 -76 0
-131 -77 0
-132 -78 0
-121 -79 0
-122 -80 0
-123 -81 0
-133 -79 0
-134 -80 0
-135 -81 0
-136 -79 0
-137 -80 0
-138 -81 0
-112 -85 0
-113 -86 0
-114 -87 0
-124 -85 0
-125 -86 0
-126 -87 0
-136 -85 0
-137 -86 0
-138 -87 0
-142 -85 0
-143 -86 0
-144 -87 0
-130 -88 0
-131 -89 0
-132 -90 0
-142 -88 0
-143 -89 0
-144 -90 0
-142 -91 0
-143 -92 0
-144 -93 0
-106 -94 0
-107 -95 0
-108 -96 0
-109 -94 0
-110 -95 0
-111 -96 0
-124 -100 0
-125 -101 0
-126 -102 0
